cases/matpower/case5_asym.m
ipopt
SOCW
[info | PowerModels]: removing 1 cost terms from generator 4: [4000.0, 0.0]
[info | PowerModels]: removing 1 cost terms from generator 1: [1400.0, 0.0]
[info | PowerModels]: removing 1 cost terms from generator 5: [1000.0, 0.0]
[info | PowerModels]: removing 1 cost terms from generator 2: [1500.0, 0.0]
[info | PowerModels]: removing 1 cost terms from generator 3: [3000.0, 0.0]

******************************************************************************
This program contains Ipopt, a library for large-scale nonlinear optimization.
 Ipopt is released as open source code under the Eclipse Public License (EPL).
         For more information visit http://projects.coin-or.org/Ipopt
******************************************************************************

This is Ipopt version 3.13.2, running with linear solver mumps.
NOTE: Other linear solvers might be more efficient (see Ipopt documentation).

Number of nonzeros in equality constraint Jacobian...:      130
Number of nonzeros in inequality constraint Jacobian.:      120
Number of nonzeros in Lagrangian Hessian.............:       42

Total number of variables............................:       51
                     variables with only lower bounds:        0
                variables with lower and upper bounds:       51
                     variables with only upper bounds:        0
Total number of equality constraints.................:       34
Total number of inequality constraints...............:       42
        inequality constraints with only lower bounds:       18
   inequality constraints with lower and upper bounds:        0
        inequality constraints with only upper bounds:       24

iter    objective    inf_pr   inf_du lg(mu)  ||d||  lg(rg) alpha_du alpha_pr  ls
   0  1.0059989e+02 3.99e+00 2.92e+01  -1.0 0.00e+00    -  0.00e+00 0.00e+00   0
   1  5.9421355e+02 3.83e+00 2.52e+01  -1.0 9.79e+00    -  6.37e-03 3.90e-02h  1
   2  5.6944381e+02 3.79e+00 2.43e+01  -1.0 8.80e+00    -  2.75e-02 1.22e-02f  1
   3  8.5532717e+02 3.65e+00 6.56e+01  -1.0 6.81e+00    -  3.75e-01 3.65e-02h  1
   4  2.0071859e+03 3.21e+00 5.40e+01  -1.0 6.75e+00    -  8.86e-02 1.20e-01h  1
   5  3.2226566e+03 2.77e+00 2.25e+02  -1.0 6.33e+00    -  4.47e-01 1.38e-01h  1
   6  4.2410518e+03 2.41e+00 3.33e+02  -1.0 6.96e+00    -  5.61e-01 1.28e-01h  1
   7  8.1411275e+03 1.09e+00 1.38e+02  -1.0 9.77e+00    -  4.14e-01 5.50e-01H  1
   8  9.0215266e+03 7.97e-01 7.45e+01  -1.0 1.31e+01    -  4.90e-01 2.67e-01h  1
   9  9.1112608e+03 7.73e-01 2.95e+02  -1.0 9.16e+00    -  1.65e-01 2.99e-02h  1
iter    objective    inf_pr   inf_du lg(mu)  ||d||  lg(rg) alpha_du alpha_pr  ls
  10  1.0840069e+04 5.45e-01 1.11e+02  -1.0 2.17e+00    -  3.63e-03 2.95e-01h  1
  11  1.5064406e+04 1.39e-14 8.68e+01  -1.0 1.41e+00    -  6.89e-01 1.00e+00h  1
  12  1.5061160e+04 3.24e-14 4.03e-01  -1.0 3.59e-01    -  1.00e+00 1.00e+00h  1
  13  1.5024764e+04 4.18e-14 1.05e+00  -1.7 1.42e-01    -  9.92e-01 1.00e+00f  1
  14  1.5016124e+04 2.73e-14 3.14e+00  -1.7 4.29e-01    -  1.00e+00 1.00e+00h  1
  15  1.5017219e+04 1.61e-14 3.88e-02  -1.7 2.25e-01    -  1.00e+00 1.00e+00h  1
  16  1.5004040e+04 3.59e-07 3.74e+00  -2.5 3.29e-01    -  8.43e-01 1.00e+00f  1
  17  1.5001908e+04 1.96e-14 1.53e-01  -2.5 2.47e-01    -  1.00e+00 1.00e+00h  1
  18  1.5002083e+04 1.75e-14 4.11e-03  -2.5 5.59e-02    -  1.00e+00 1.00e+00h  1
  19  1.5000467e+04 1.76e-14 1.55e+00  -3.8 1.56e-01    -  9.71e-01 6.39e-01h  1
iter    objective    inf_pr   inf_du lg(mu)  ||d||  lg(rg) alpha_du alpha_pr  ls
  20  1.4999781e+04 1.28e-03 6.64e-02  -3.8 1.81e-01    -  1.00e+00 9.63e-01h  1
  21  1.4999810e+04 5.02e-14 5.44e-04  -3.8 4.24e-02    -  1.00e+00 1.00e+00h  1
  22  1.4999721e+04 1.10e-08 4.03e-02  -5.7 3.76e-02    -  1.00e+00 8.97e-01h  1
  23  1.4999717e+04 1.31e-05 3.35e-02  -5.7 2.16e-03    -  1.00e+00 8.52e-01h  1
  24  1.4999716e+04 2.15e-14 9.55e-06  -5.7 8.23e-04    -  1.00e+00 1.00e+00f  1
  25  1.4999715e+04 1.69e-08 5.78e-04  -8.6 3.23e-04    -  1.00e+00 9.57e-01h  1
  26  1.4999715e+04 4.48e-14 9.04e-09  -8.6 2.13e-05    -  1.00e+00 1.00e+00f  1

Number of Iterations....: 26

                                   (scaled)                 (unscaled)
Objective...............:   3.7499287470157748e+02    1.4999714988063099e+04
Dual infeasibility......:   9.0398302885781833e-09    3.6159321154312732e-07
Constraint violation....:   2.8957103381799245e-14    4.4797499043625073e-14
Complementarity.........:   2.6038074996807521e-09    1.0415229998723007e-07
Overall NLP error.......:   9.0398302885781833e-09    3.6159321154312732e-07


Number of objective function evaluations             = 28
Number of objective gradient evaluations             = 27
Number of equality constraint evaluations            = 28
Number of inequality constraint evaluations          = 28
Number of equality constraint Jacobian evaluations   = 27
Number of inequality constraint Jacobian evaluations = 27
Number of Lagrangian Hessian evaluations             = 26
Total CPU secs in IPOPT (w/o function evaluations)   =      0.281
Total CPU secs in NLP function evaluations           =      0.211

EXIT: Optimal Solution Found.
Time to Solution........:1.2401230335235596
